p cnf 95 324
3 1 0
3 -2 0
-1 2 -3 0
-5 3 0
-5 -4 0
-3 4 5 0
-7 -3 0
-7 -6 0
3 6 7 0
-8 5 0
-8 -7 0
-5 7 8 0
10 5 0
10 -4 0
-5 4 -10 0
-7 -10 -11 0
7 10 -11 0
-7 10 11 0
7 -10 11 0
-9 -11 -12 0
9 11 -12 0
-9 11 12 0
9 -11 12 0
-8 -12 -13 0
8 12 -13 0
-8 12 13 0
8 -12 13 0
14 1 0
14 -4 0
-1 4 -14 0
-17 -15 0
-17 -16 0
15 16 17 0
-18 -17 0
-18 -1 0
17 1 18 0
-14 18 -19 0
14 -18 -19 0
-14 -18 19 0
14 18 19 0
-6 -19 -20 0
6 19 -20 0
-6 19 20 0
6 -19 20 0
22 5 0
22 -21 0
-5 21 -22 0
20 -22 -23 0
-20 22 -23 0
20 22 23 0
-20 -22 23 0
24 13 0
24 -23 0
-13 23 -24 0
-10 -5 -25 0
10 5 -25 0
-10 5 25 0
10 -5 25 0
-26 -9 -27 0
26 9 -27 0
-26 9 27 0
26 -9 27 0
-28 27 0
-28 6 0
-27 -6 28 0
29 -10 0
29 -5 0
10 5 -29 0
30 28 0
30 -29 0
-28 29 -30 0
-31 25 0
-31 -30 0
-25 30 31 0
24 -31 -32 0
-24 31 -32 0
24 31 32 0
-24 -31 32 0
-33 34 -35 0
33 -34 -35 0
-33 -34 35 0
33 34 35 0
-37 -35 0
-37 36 0
35 -36 37 0
-38 -9 0
-38 27 0
9 -27 38 0
39 38 0
39 -19 0
-38 19 -39 0
-37 -39 -40 0
37 39 -40 0
-37 39 40 0
37 -39 40 0
-41 16 0
-41 26 0
-16 -26 41 0
-43 -10 0
-43 -42 0
10 42 43 0
41 -43 -44 0
-41 43 -44 0
41 43 44 0
-41 -43 44 0
-45 -36 0
-45 2 0
36 -2 45 0
46 -16 0
46 -45 0
16 45 -46 0
-46 15 -47 0
46 -15 -47 0
-46 -15 47 0
46 15 47 0
-48 45 0
-48 -26 0
-45 26 48 0
-49 -47 0
-49 -48 0
47 48 49 0
-50 44 0
-50 49 0
-44 -49 50 0
33 51 -52 0
-33 -51 -52 0
33 -51 52 0
-33 51 52 0
53 -18 0
53 14 0
18 -14 -53 0
-54 -52 0
-54 53 0
52 -53 54 0
50 54 -55 0
-50 -54 -55 0
50 -54 55 0
-50 54 55 0
-56 -40 0
-56 -55 0
40 55 56 0
-36 -15 -57 0
36 15 -57 0
-36 15 57 0
36 -15 57 0
-45 19 -58 0
45 -19 -58 0
-45 -19 58 0
45 19 58 0
59 -58 0
59 -15 0
58 15 -59 0
-60 57 0
-60 59 0
-57 -59 60 0
61 -51 0
61 7 0
51 -7 -61 0
62 -51 0
62 61 0
51 -61 -62 0
63 60 0
63 -62 0
-60 62 -63 0
-56 -63 -64 0
56 63 -64 0
-56 63 64 0
56 -63 64 0
65 26 0
65 -5 0
-26 5 -65 0
66 65 0
66 -65 0
-15 -9 -67 0
15 9 -67 0
-15 9 67 0
15 -9 67 0
68 -66 0
68 -67 0
66 67 -68 0
69 -6 0
69 1 0
6 -1 -69 0
70 68 0
70 69 0
-68 -69 -70 0
-71 -64 0
-71 70 0
64 -70 71 0
-15 -4 -72 0
15 4 -72 0
-15 4 72 0
15 -4 72 0
-73 -16 0
-73 51 0
16 -51 73 0
74 -4 0
74 -4 0
4 -74 0
-75 73 0
-75 -74 0
-73 74 75 0
-76 34 0
-76 -5 0
-34 5 76 0
-77 -75 0
-77 76 0
75 -76 77 0
-78 46 0
-78 -27 0
-46 27 78 0
-77 -78 -79 0
77 78 -79 0
-77 78 79 0
77 -78 79 0
80 17 0
80 1 0
-17 -1 -80 0
81 80 0
81 7 0
-80 -7 -81 0
-82 -19 0
-82 65 0
19 -65 82 0
83 81 0
83 -82 0
-81 82 -83 0
33 4 -84 0
-33 -4 -84 0
33 -4 84 0
-33 4 84 0
2 84 -85 0
-2 -84 -85 0
2 -84 85 0
-2 84 85 0
86 -26 0
86 -42 0
26 42 -86 0
-87 -86 0
-87 14 0
86 -14 87 0
85 87 -88 0
-85 -87 -88 0
85 -87 88 0
-85 87 88 0
89 -84 0
89 38 0
84 -38 -89 0
-90 -88 0
-90 89 0
88 -89 90 0
91 -83 0
91 90 0
83 -90 -91 0
-79 -91 -92 0
79 91 -92 0
-79 91 92 0
79 -91 92 0
-72 -92 -93 0
72 92 -93 0
-72 92 93 0
72 -92 93 0
71 -93 -94 0
-71 93 -94 0
71 93 94 0
-71 -93 94 0
95 32 0
95 -94 0
-32 94 -95 0
45 94 0
91 -76 -80 0
-44 78 -30 20 10 -69 0
81 3 20 0
1 -43 35 -77 19 0
88 89 0
-37 72 20 0
-55 -10 -39 -88 -74 9 0
-11 33 0
-53 -13 -54 33 8 0
-29 -38 -91 40 0
-90 -5 27 38 -80 -55 0
85 -14 -22 0
7 -88 -28 44 0
17 -60 53 -62 -6 0
-49 89 -13 10 -18 25 0
-76 27 43 85 22 0
13 58 7 0
-45 67 9 55 0
84 -21 0
-8 -82 60 55 -27 0
91 -61 -43 -85 0
-81 -4 74 46 39 0
33 55 22 -77 0
9 62 0
79 -32 39 -5 87 -6 0
40 -1 -93 -81 0
74 25 0
65 27 15 -68 -37 19 0
-2 -52 -85 15 0
62 -5 -94 -14 10 -1 0
-32 -79 77 55 69 0
82 -3 48 65 21 0
-17 83 -1 0
39 36 -48 16 -47 0
-30 63 -5 81 -19 0
-12 -16 -84 0
58 -76 -41 0
-13 29 -83 0
-14 -42 92 63 -9 -38 0
13 -89 -8 28 0
31 -40 48 -91 0
-9 38 -64 -75 0
-91 -21 67 0
-62 11 -54 75 0
68 -6 59 0
29 87 78 51 -4 0
12 -5 -75 0
-14 -36 -25 -82 49 0
-45 43 26 -51 0
-80 -11 -81 -3 -14 0
14 40 87 26 71 0
51 63 27 -49 68 -71 0
-59 -8 -53 0
95 0
